5 
7 
7 
5 
6 
5 
4 
4 
6 
6 
7 
6 
6 
3 
6 
4 
4 
3 
5 
7 
5 
3 
3 
3 
7 
7 
4 
6 
6 
4 
4 
7 
5 
3 
3 
3 
4 
3 
7 
6 
5 
4 
3 
3 
5 
3 
6 
4 
3 
5 
4 
4 
6 
7 
4 
7 
5 
5 
7 
4 
4 
6 
3 
4 
4 
7 
4 
4 
6 
6 
7 
5 
6 
7 
4 
7 
7 
6 
5 
5 
5 
6 
6 
6 
4 
7 
4 
4 
5 
6 
6 
3 
6 
4 
4 
6 
6 
6 
6 
6 
